\Problem name: 

Minimize
OBJROW: s
Subject To
constr1:  70 x1 + 12 x2 + 33 x3 + 40 x4 + 65 x5 + 75 x6 + 45 x7 <= 155
sum1:  - s -1.00100 f1 -0.00100 f2 <= -32.14920
sum2:  - s -0.00100 f1 -1.00100 f2 <= -17.14920
f_constr_0:  -9 x1 -7 x2 -8 x3 -8 x4 -6 x5 -9 x6 - x7 + f1 = -0
f_constr_1:  - x1 -4 x2 -2 x3 -3 x4 -3 x5 -2 x6 -8 x7 + f2 = -0
Bounds
 0 <= x1 <= 1
 0 <= x2 <= 1
 0 <= x3 <= 1
 0 <= x4 <= 1
 0 <= x5 <= 1
 0 <= x6 <= 1
 0 <= x7 <= 1
Integers
x1 x2 x3 x4 x5 x6 x7 
End
